10
1 0 1
2 0 2
2 1 1
3 0 2
3 1 1
3 2 1
4 0 1
4 1 1
4 2 1
4 3 1
5 0 2
5 1 1
5 2 1
5 3 2
5 4 1
6 0 2
6 1 2
6 2 1
6 3 1
6 4 2
6 5 2
7 0 2
7 1 1
7 2 2
7 3 2
7 4 2
7 5 1
7 6 1
8 0 1
8 1 2
8 2 2
8 3 1
8 4 1
8 5 2
8 6 2
8 7 2
9 0 1
9 1 1
9 2 2
9 3 2
9 4 1
9 5 1
9 6 2
9 7 2
9 8 2
